(declare-const delta_k Int)
(assert (exists ((|k'?1| Int) (k?2 Int) (n?3 Int) (i?4 Int))
         (and (<= (- k?2) 0) (< (- n?3) 0) (<= (- i?4) 0)
                (< (+ (- n?3) k?2) 0) (<= (+ i?4 (- k?2)) 0)
                (= (+ |k'?1| (- k?2) -1) 0) (= delta_k (+ |k'?1| (- k?2))))))
(check-sat)
